c Sudoku solution
p cnf 729 0
131 0
243 0
271 0
289 0
335 0
342 0
359 0
361 0
386 0
394 0
464 0
545 0
553 0
574 0
588 0
617 0
699 0
723 0
744 0
796 0
838 0
866 0
963 0
895 0
937 0
951 0
998 0
949 0
847 0
852 0
972 0
984 0
569 0
457 0
597 0
662 0
491 0
482 0
641 0
193 0
292 0
313 0
146 0
448 0
656 0
628 0
634 0
433 0
476 0
327 0
267 0
255 0
154 0
168 0
218 0
378 0
814 0
224 0
236 0
532 0
122 0
119 0
712 0
821 0
739 0
781 0
883 0
879 0
777 0
511 0
526 0
916 0
925 0
415 0
429 0
758 0
765 0
673 0
685 0
175 0
187 0
